DATASET = "thpack1";
INSTANCE = "056";

WIDTH = 233;
HEIGHT = 220;
LENGTH = 587;

NO_OF_SHAPES = 3;
size = [|
  90,41,34 |
  64,32,28 |
  42,31,31 |
|];

verticality = [|
  0,1,1 |
  0,1,1 |
  1,1,1 |
|];

box_count = [
  133,
  131,
  144,
];
